01100001110000001100000010001000000011101100101001111100100010011000010110000010010010011100011010000001001000101000010010111011000010011010101011000110010010111111000100110001100101000000000010110100000000101111001101011111000100001101110000101100100001010000010100000010000001101011100001110011010011101000010011111110100001100010100111110011001110011100000011011000000101111000100000100011001100010101010011000000111000010101101011100111111101110000011010000101111100010010110011110111000110010000111001101011